data/processed_heuristic-threshold/instances/1/8/ds_708_courier_4474/pairwise.tsp
NAME: ds_708_courier_4474
TYPE: TSP
COMMENT: nil
DIMENSION: 9
EDGE_WEIGHT_TYPE: EXPLICIT
EDGE_WEIGHT_FORMAT: FULL_MATRIX
EDGE_WEIGHT_SECTION
9999 1555 767 1061 1710 1507 1360 1027 1472 
1555 9999 789 561 1467 1475 1206 2470 652 
767 789 9999 371 1427 1307 1060 1726 814 
1061 561 371 9999 1151 1079 809 1919 885 
1710 1467 1427 1151 9999 238 373 2032 2008 
1507 1475 1307 1079 238 9999 274 1793 1959 
1360 1206 1060 809 373 274 9999 1805 1687 
1027 2470 1726 1919 2032 1793 1805 9999 2490 
1472 652 814 885 2008 1959 1687 2490 9999 
