data/processed_heuristic-threshold/instances/1/8/ds_708_courier_4474/pairwise.sol
9
0 7 5 4 6 3 1 8 2 
